; benchmark generated from python API
(set-info :status unknown)
(declare-datatypes ((IntState 0)) (((Mk1 (val1 Int)) (Mk2 (val2 Int)))))
 (declare-fun c_main_~x~0 () Int)
(declare-fun c_main_~y~0 () Int)
(assert
 (let (($x99 (exists ((|v_main_#t~nondet0_7_st| IntState) (val!67 Int) )(exists ((|v_main_#t~nondet0_8_st| IntState) (val!68 Int) )(exists ((|v_main_#t~nondet0_5_st| IntState) (val!69 Int) )(exists ((|v_main_#t~nondet0_6_st| IntState) (val!70 Int) )(let ((?x59 (+ (* 2 (val2 |v_main_#t~nondet0_7_st|)) (* 2 (val2 |v_main_#t~nondet0_8_st|)) (* 2 (val2 |v_main_#t~nondet0_5_st|)) (* 2 (val2 |v_main_#t~nondet0_6_st|)) 1)))
 (let (($x112 (not (= |v_main_#t~nondet0_6_st| (Mk1 val!70)))))
 (let (($x58 (not (= |v_main_#t~nondet0_5_st| (Mk1 val!69)))))
 (let (($x48 (not (= |v_main_#t~nondet0_8_st| (Mk1 val!68)))))
 (let (($x191 (not (= |v_main_#t~nondet0_7_st| (Mk1 val!67)))))
 (and $x191 $x48 $x58 $x112 (= ?x59 c_main_~x~0))))))))
 )
 )
 )
 ))
 (let (($x200 (exists ((|v_main_#t~nondet1_8_st| IntState) (val!63 Int) )(exists ((|v_main_#t~nondet1_6_st| IntState) (val!64 Int) )(exists ((|v_main_#t~nondet1_7_st| IntState) (val!65 Int) )(exists ((|v_main_#t~nondet1_5_st| IntState) (val!66 Int) )(let ((?x59 (+ (* 2 (val2 |v_main_#t~nondet1_8_st|)) (* 2 (val2 |v_main_#t~nondet1_6_st|)) (* 2 (val2 |v_main_#t~nondet1_7_st|)) (* 2 (val2 |v_main_#t~nondet1_5_st|)) 1)))
 (let (($x112 (not (= |v_main_#t~nondet1_5_st| (Mk1 val!66)))))
 (let (($x58 (not (= |v_main_#t~nondet1_7_st| (Mk1 val!65)))))
 (let (($x48 (not (= |v_main_#t~nondet1_6_st| (Mk1 val!64)))))
 (let (($x191 (not (= |v_main_#t~nondet1_8_st| (Mk1 val!63)))))
 (and $x191 $x48 $x58 $x112 (= ?x59 c_main_~y~0))))))))
 )
 )
 )
 ))
 (let (($x144 (exists ((|v_main_#t~nondet1_6| Int) )(exists ((|v_main_#t~nondet1_5| Int) )(let ((?x108 (* 2 |v_main_#t~nondet1_5|)))
 (let ((?x66 (* 2 |v_main_#t~nondet1_6|)))
 (let ((?x11 (+ ?x66 ?x108 1)))
 (= ?x11 c_main_~y~0)))))
 )
 ))
 (let (($x17 (exists ((|v_main_#t~nondet0_5| Int) )(exists ((|v_main_#t~nondet0_6| Int) )(let ((?x108 (* 2 |v_main_#t~nondet0_6|)))
 (let ((?x66 (* 2 |v_main_#t~nondet0_5|)))
 (let ((?x11 (+ ?x66 ?x108 1)))
 (= ?x11 c_main_~x~0)))))
 )
 ))
 (and (and $x17 $x144) (not (and $x200 $x99))))))))
(check-sat)
